25
2 3 21 
2 38 45 
2 31 8 
2 59 11 
2 48 13 
2 4 26 
3 5 2 15 
2 29 53 
2 16 17 
3 55 22 30 
3 36 18 25 
3 57 10 9 
2 34 46 
3 24 41 23 
3 50 47 35 
3 28 6 27 
3 58 43 20 
2 12 33 
2 44 56 
3 51 19 32 
3 42 40 60 
2 49 1 
2 54 14 
1 37 
3 7 39 52 
